p tw 13 50
0 1
0 2
0 3
0 4
0 5
0 6
0 7
0 8
0 9
0 10
0 11
0 12
1 2
2 5
2 6
2 7
2 8
2 9
2 10
2 11
2 12
3 4
5 6
5 7
5 8
5 9
5 10
5 11
5 12
6 7
6 8
6 9
6 10
6 11
6 12
7 8
7 9
7 10
7 11
7 12
8 9
8 10
8 11
8 12
9 10
9 11
9 12
10 11
10 12
11 12
